N = 12;
H = 5;
T = 2;

avail = array3d(1..N, 1..H, 1..T, [9, 3, 5, 3, 0, 3, 7, 9, 3, 3, 4, 1, 8, 1, 9, 8, 9, 0, 2, 2, 6, 0, 6, 4, 0, 1, 3, 2, 10, 1, 7, 2, 9, 10, 3, 3, 7, 1, 7, 1, 2, 4, 3, 1, 6, 8, 5, 7, 6, 2, 4, 8, 3, 6, 7, 4, 1, 7, 2, 7, 1, 0, 6, 3, 1, 3, 0, 9, 2, 1, 1, 5, 4, 0, 7, 10, 7, 10, 0, 3, 5, 4, 3, 0, 6, 3, 0, 8, 6, 0, 7, 7, 2, 5, 4, 8, 4, 9, 6, 6, 8, 9, 9, 4, 4, 5, 10, 1, 1, 8, 3, 9, 1, 7, 1, 8, 1, 3, 5, 5]);

r = array2d(1..H, 1..T, [0, 6, 3, 3, 3, 6, 6, 2, 3, 2]);
